c This is QMaxSAT 2017 based on 14.07
c This is Glucose 3.0
c This is MiniSat 2.2.0
c WARNING: for repeatability, setting FPU to use double precision
c card = mrwto, comp = 0, pmodel = 0, narr = 5, mct = 24, verb = 0
cr firstCPXsol 0 0 0
c top = 81479
c |  Number of variables:    1568                                             |
c |  Number of clauses:      36442                                            |
c |  Weight of hard clauses: 81479                                            |
c |  Number of soft clauses: 3680                                             |
c |  Number of unit soft clauses: 0                                           |
c |  Maximum Cardinality (by unit): 581270       (0           )               |
c last restart ## conflicts  :  4507 309 
o 3422 | cpuTime 0.139367 s
c Sum of weights = 116254
c A number of soft clauses remained = 736
c MRWTO encoding for Pseudo-Boolean Constraints
c sizeMax=3422
c No.0 Divisor=16	generated by pow1
c No.1 Divisor=16	generated by pow1
c No.2 Divisor=16	generated by pow1
c p0= 16	p1= 16	p2= 16	
c number of digits = 4
c linkingVar[0].size = 16, linkingVar[1].size = 16, linkingVar[2].size = 14, linkingVar[3].size = 1, 
c Pseudo-Boolean Constraints: 18382 variables and 226102 clauses
c Sum of weights = 116254
c A number of soft clauses remained = 736
c MRWTO encoding for Pseudo-Boolean Constraints
c sizeMax=3422
c No.0 Divisor=16	generated by pow1
c No.1 Divisor=16	generated by pow1
c No.2 Divisor=16	generated by pow1
c p0= 16	p1= 16	p2= 16	
c number of digits = 4
c linkingVar[0].size = 16, linkingVar[1].size = 16, linkingVar[2].size = 14, linkingVar[3].size = 1, 
c Pseudo-Boolean Constraints: 18382 variables and 226102 clauses
c Sum of weights = 116254
c A number of soft clauses remained = 736
c MRWTO encoding for Pseudo-Boolean Constraints
c sizeMax=3422
c No.0 Divisor=16	generated by pow1
c No.1 Divisor=16	generated by pow1
c No.2 Divisor=16	generated by pow1
c p0= 16	p1= 16	p2= 16	
c number of digits = 4
c linkingVar[0].size = 16, linkingVar[1].size = 16, linkingVar[2].size = 14, linkingVar[3].size = 1, 
c Pseudo-Boolean Constraints: 18382 variables and 226102 clauses
c Sum of weights = 116254
c A number of soft clauses remained = 736
c MRWTO encoding for Pseudo-Boolean Constraints
c sizeMax=3422
c No.0 Divisor=16	generated by pow1
c No.1 Divisor=16	generated by pow1
c No.2 Divisor=16	generated by pow1
c p0= 16	p1= 16	p2= 16	
c number of digits = 4
c linkingVar[0].size = 16, linkingVar[1].size = 16, linkingVar[2].size = 14, linkingVar[3].size = 1, 
c Pseudo-Boolean Constraints: 18382 variables and 226102 clauses
c Sum of weights = 116254
c A number of soft clauses remained = 736
c MRWTO encoding for Pseudo-Boolean Constraints
c sizeMax=3422
c No.0 Divisor=16	generated by pow1
c No.1 Divisor=16	generated by pow1
c No.2 Divisor=16	generated by pow1
c p0= 16	p1= 16	p2= 16	
c number of digits = 4
c linkingVar[0].size = 16, linkingVar[1].size = 16, linkingVar[2].size = 14, linkingVar[3].size = 1, 
c Pseudo-Boolean Constraints: 18382 variables and 226102 clauses
c last restart ## conflicts  :  149 7316 
o 2537 | cpuTime 0.414567 s
c last restart ## conflicts  :  476 4431 
o 1555 | cpuTime 0.473787 s
c last restart ## conflicts  :  223 3373 
o 1207 | cpuTime 0.507167 s
c last restart ## conflicts  :  1795 2044 
o 1193 | cpuTime 1.85858 s
c last restart ## conflicts  :  667 2120 
o 1136 | cpuTime 1.93539 s
c last restart ## conflicts  :  263 2261 
o 968 | cpuTime 3.23648 s
c last restart ## conflicts  :  130 1334 
o 952 | cpuTime 3.39821 s
c last restart ## conflicts  :  167 1626 
o 854 | cpuTime 4.13916 s
c last restart ## conflicts  :  1004 5586 
o 837 | cpuTime 7.18287 s
c last restart ## conflicts  :  402 1512 
o 753 | cpuTime 8.62596 s
c last restart ## conflicts  :  1001 1076 
o 746 | cpuTime 13.7969 s
c last restart ## conflicts  :  258 1229 
o 707 | cpuTime 37.5889 s
c last restart ## conflicts  :  179 1202 
o 694 | cpuTime 83.2334 s
c last restart ## conflicts  :  4289 2592 
o 686 | cpuTime 455.429 s
c last restart ## conflicts  :  478 1147 
o 678 | cpuTime 2601.18 s
c last restart ## conflicts  :  168 1475 
o 676 | cpuTime 2763.23 s
s UNKNOWN
c Search is stopped by a limit (maybe time-limit)
cr positiVarArr: [ | 21(1->17) | 56(1->24) | 76(1->16) | 92(1->4) | 128(1->12) | 144(2->1) | 183(3->11) | 223(4->23) | 236(5->8) | 253(6->1) | 282(7->1) | 318(8->6) | 353(9->13) | 387(10->19) | 398(11->2) | 431(12->7) | 466(13->14) | 485(14->5) | 507(15->1) | 539(16->3) | 584(17->20) | 613(18->21) | 642(19->22) | 663(20->15) | 677(21->1) | 722(22->18) | 741(23->9) | 770(24->10) | ]
cr the 1-th chain: [ 1->17->20->15->1 ] (#non-depot=3) {#cumul.=4}
cr the 2-th chain: [ 1->24->10->19->22->18->21->1 ] (#non-depot=6) {#cumul.=10}
cr the 3-th chain: [ 1->16->3->11->2->1 ] (#non-depot=4) {#cumul.=14}
cr the 4-th chain: [ 1->4->23->9->13->14->5->8->6->1 ] (#non-depot=8) {#cumul.=22}
cr the 5-th chain: [ 1->12->7->1 ] (#non-depot=2) {#cumul.=24}
c Latest Answer = 0 by 17 loops
c restarts              : 58465
c conflicts             : 22981272       (6393 /sec)
c decisions             : 51231428       (0.00 % random) (14251 /sec)
c propagations          : 19699228297    (5479839 /sec)
c conflict literals     : 1724993366     (48.47 % deleted)
c Memory used           : 441.00 MB
c CPU time              : 3594.86 s
